166 172 56 119 86 78 142 157 123 1 117 26 21 106 155 164 38 112 116 141 114 11 85 25 191 61 52 144 2 3 70 193 69 124 47 67 163 103 183 76 14 72 138 66 98 107 190 154 176 55 159 149 173 118 29 27 146 180 36 135 35 185 95 53 99 188 145 168 93 161 16 179 64 140 50 4 13 137 57 134 97 131 115 19 162 174 65 63 196 170 23 81 167 194 158 113 92 77 151 45 68 75 82 132 39 147 108 184 0 90 83 9 153 122 30 7 37 171 41 10 79 51 102 126 15 156 139 111 22 130 125 192 175 91 59 28 105 87 101 62 187 74 60 129 84 32 71 80 5 121 186 136 178 44 94 34 42 197 169 40 177 182 165 12 17 181 104 96 6 128 199 49 133 58 195 160 89 100 43 150 120 148 189 109 152 127 198 24 54 18 143 8 20 46 73 33 88 48 110 31